1000 100
400 92
205 39
7 7
113 193
249 134
168 148
38 38
262 495
58 467
141 117
467 128
474 319
440 166
433 16
72 198
376 453
383 301
458 127
462 320
32 199
279 130
475 156
434 347
10 73
59 401
467 218
181 253
378 432
317 291
127 120
431 497
122 309
497 437
207 95
386 444
89 134
112 430
304 497
93 156
327 4
314 425
165 356
491 361
74 198
27 233
263 47
220 70
246 119
345 153
136 166
132 413
382 160
241 233
202 477
176 6
122 418
250 411
33 422
109 132
490 334
102 73
445 252
171 82
476 270
246 147
176 458
151 379
349 65
253 255
79 297
87 173
300 370
318 172
422 465
490 195
496 100
199 429
102 41
473 213
451 464
405 110
438 481
404 202
273 496
76 178
400 115
109 326
360 227
80 469
283 380
269 45
299 302
484 490
388 79
497 447
365 216
481 208
192 5
298 297
52 77
